7652 1147
6544 3882
2699 7515
8318 3235
8823 8243
6758 1498
356 3340
780 2850
4944 6914
2310 3771
9465 5214
2873 3320
4558 2247
9354 7342
8157 6490
4350 5385
1937 7894
4457 8574
4810 9165
6029 8445
8749 9886
4247 2489
7619 9701
6594 2918
8888 1587
9100 4112
8114 1595
449 9102
9838 6570
3758 7743
5835 1300
2426 9000
6203 3639
4914 1524
7361 3959
8604 9259
1741 5199
2695 3678
9236 9020
8643 5333
7724 1402
3794 2258
5546 766
799 3035
5978 8499
5008 1319
2561 2133
9112 42
3348 4572
5388 4792
